\ LP format - for model browsing. Use MPS format to capture full model detail.
Maximize
  cum_prob_j_4_k_0_s_99 + cum_prob_j_4_k_0_s_98 + cum_prob_j_4_k_0_s_91
   + cum_prob_j_4_k_0_s_90 + cum_prob_j_4_k_0_s_93 + cum_prob_j_4_k_0_s_92
   + cum_prob_j_4_k_0_s_95 + cum_prob_j_4_k_0_s_94 + cum_prob_j_4_k_0_s_97
   + cum_prob_j_4_k_0_s_96 + cum_prob_j_4_k_1_s_99 + cum_prob_j_4_k_1_s_98
   + cum_prob_j_4_k_1_s_91 + cum_prob_j_4_k_1_s_90 + cum_prob_j_4_k_1_s_93
   + cum_prob_j_4_k_1_s_92 + cum_prob_j_4_k_1_s_95 + cum_prob_j_4_k_1_s_94
   + cum_prob_j_4_k_1_s_97 + cum_prob_j_4_k_1_s_96 + cum_prob_j_4_k_2_s_99
   + cum_prob_j_4_k_2_s_98 + cum_prob_j_4_k_2_s_91 + cum_prob_j_4_k_2_s_90
   + cum_prob_j_4_k_2_s_93 + cum_prob_j_4_k_2_s_92 + cum_prob_j_4_k_2_s_95
   + cum_prob_j_4_k_2_s_94 + cum_prob_j_4_k_2_s_97 + cum_prob_j_4_k_2_s_96
Subject To
 first_component_s_99_k_0: - 1547.428995223687 allocVar_j_0_k_0
   + cum_prob_j_0_k_0_s_99 = 0
 first_component_s_99_k_1: - 654.0204482794591 allocVar_j_0_k_1
   + cum_prob_j_0_k_1_s_99 = 0
 first_component_s_99_k_2: - 283.95851139512 allocVar_j_0_k_2
   + cum_prob_j_0_k_2_s_99 = 0
 first_component_s_98_k_0: cum_prob_j_0_k_0_s_98 = 0
 first_component_s_98_k_1: - 2786.027565796981 allocVar_j_0_k_1
   + cum_prob_j_0_k_1_s_98 = 0
 first_component_s_98_k_2: - 3940.03796869539 allocVar_j_0_k_2
   + cum_prob_j_0_k_2_s_98 = 0
 first_component_s_91_k_0: - 2695.194616059194 allocVar_j_0_k_0
   + cum_prob_j_0_k_0_s_91 = 0
 first_component_s_91_k_1: - 1139.123278958988 allocVar_j_0_k_1
   + cum_prob_j_0_k_1_s_91 = 0
 first_component_s_91_k_2: - 494.5774271120468 allocVar_j_0_k_2
   + cum_prob_j_0_k_2_s_91 = 0
 first_component_s_90_k_0: cum_prob_j_0_k_0_s_90 = 0
 first_component_s_90_k_1: - 2284.557052118817 allocVar_j_0_k_1
   + cum_prob_j_0_k_1_s_90 = 0
 first_component_s_90_k_2: - 3230.851567121529 allocVar_j_0_k_2
   + cum_prob_j_0_k_2_s_90 = 0
 first_component_s_93_k_0: - 368.9995457101158 allocVar_j_0_k_0
   + cum_prob_j_0_k_0_s_93 = 0
 first_component_s_93_k_1: - 155.9575586635308 allocVar_j_0_k_1
   + cum_prob_j_0_k_1_s_93 = 0
 first_component_s_93_k_2: - 67.71267827392209 allocVar_j_0_k_2
   + cum_prob_j_0_k_2_s_93 = 0
 first_component_s_92_k_0: - 2642.413694609786 allocVar_j_0_k_0
   + cum_prob_j_0_k_0_s_92 = 0
 first_component_s_92_k_1: - 1116.815436716473 allocVar_j_0_k_1
   + cum_prob_j_0_k_1_s_92 = 0
 first_component_s_92_k_2: - 484.8919475642954 allocVar_j_0_k_2
   + cum_prob_j_0_k_2_s_92 = 0
 first_component_s_95_k_0: - 2747.358641277757 allocVar_j_0_k_0
   + cum_prob_j_0_k_0_s_95 = 0
 first_component_s_95_k_1: - 1161.1703901756 allocVar_j_0_k_1
   + cum_prob_j_0_k_1_s_95 = 0
 first_component_s_95_k_2: - 504.1497040922255 allocVar_j_0_k_2
   + cum_prob_j_0_k_2_s_95 = 0
 first_component_s_94_k_0: - 3593.220642810776 allocVar_j_0_k_0
   + cum_prob_j_0_k_0_s_94 = 0
 first_component_s_94_k_1: - 1518.673737426255 allocVar_j_0_k_1
   + cum_prob_j_0_k_1_s_94 = 0
 first_component_s_94_k_2: - 659.3682734368515 allocVar_j_0_k_2
   + cum_prob_j_0_k_2_s_94 = 0
 first_component_s_97_k_0: - 2747.563536805828 allocVar_j_0_k_0
   + cum_prob_j_0_k_0_s_97 = 0
 first_component_s_97_k_1: - 1161.256989215383 allocVar_j_0_k_1
   + cum_prob_j_0_k_1_s_97 = 0
 first_component_s_97_k_2: - 504.1873031221791 allocVar_j_0_k_2
   + cum_prob_j_0_k_2_s_97 = 0
 first_component_s_96_k_0: cum_prob_j_0_k_0_s_96 = 0
 first_component_s_96_k_1: - 1694.072629279638 allocVar_j_0_k_1
   + cum_prob_j_0_k_1_s_96 = 0
 first_component_s_96_k_2: - 2395.780487972313 allocVar_j_0_k_2
   + cum_prob_j_0_k_2_s_96 = 0
 prob_chain_j_1_s_99: cum_prob_j_0_k_0_s_99 + cum_prob_j_0_k_1_s_99
   + cum_prob_j_0_k_2_s_99 - cum_prob_j_1_k_0_s_99
   - 2.366025403784438 cum_prob_j_1_k_1_s_99
   - 5.449489742783178 cum_prob_j_1_k_2_s_99 = 0
 prob_chain_j_2_s_99: cum_prob_j_1_k_0_s_99 + cum_prob_j_1_k_1_s_99
   + cum_prob_j_1_k_2_s_99 - cum_prob_j_2_k_0_s_99
   - 2.366025403784438 cum_prob_j_2_k_1_s_99
   - 5.449489742783178 cum_prob_j_2_k_2_s_99 = 0
 prob_chain_j_3_s_99: cum_prob_j_2_k_0_s_99 + cum_prob_j_2_k_1_s_99
   + cum_prob_j_2_k_2_s_99 - cum_prob_j_3_k_0_s_99
   - 2.366025403784438 cum_prob_j_3_k_1_s_99
   - 5.449489742783178 cum_prob_j_3_k_2_s_99 = 0
 prob_chain_j_4_s_99: cum_prob_j_3_k_0_s_99 + cum_prob_j_3_k_1_s_99
   + cum_prob_j_3_k_2_s_99 - 1e+07 cum_prob_j_4_k_0_s_99
   - 1.732050807568877 cum_prob_j_4_k_1_s_99
   - 1.224744871391589 cum_prob_j_4_k_2_s_99 = 0
 prob_chain_j_1_s_98: cum_prob_j_0_k_0_s_98 + cum_prob_j_0_k_1_s_98
   + cum_prob_j_0_k_2_s_98 - 1e+07 cum_prob_j_1_k_0_s_98
   - 1.732050807568877 cum_prob_j_1_k_1_s_98
   - 1.224744871391589 cum_prob_j_1_k_2_s_98 = 0
 prob_chain_j_2_s_98: cum_prob_j_1_k_0_s_98 + cum_prob_j_1_k_1_s_98
   + cum_prob_j_1_k_2_s_98 - 1e+07 cum_prob_j_2_k_0_s_98
   - 1.732050807568877 cum_prob_j_2_k_1_s_98
   - 1.224744871391589 cum_prob_j_2_k_2_s_98 = 0
 prob_chain_j_3_s_98: cum_prob_j_2_k_0_s_98 + cum_prob_j_2_k_1_s_98
   + cum_prob_j_2_k_2_s_98 - cum_prob_j_3_k_0_s_98
   - 2.366025403784438 cum_prob_j_3_k_1_s_98
   - 5.449489742783178 cum_prob_j_3_k_2_s_98 = 0
 prob_chain_j_4_s_98: cum_prob_j_3_k_0_s_98 + cum_prob_j_3_k_1_s_98
   + cum_prob_j_3_k_2_s_98 - 1e+07 cum_prob_j_4_k_0_s_98
   - 1.732050807568877 cum_prob_j_4_k_1_s_98
   - 1.224744871391589 cum_prob_j_4_k_2_s_98 = 0
 prob_chain_j_1_s_91: cum_prob_j_0_k_0_s_91 + cum_prob_j_0_k_1_s_91
   + cum_prob_j_0_k_2_s_91 - cum_prob_j_1_k_0_s_91
   - 2.366025403784438 cum_prob_j_1_k_1_s_91
   - 5.449489742783178 cum_prob_j_1_k_2_s_91 = 0
 prob_chain_j_2_s_91: cum_prob_j_1_k_0_s_91 + cum_prob_j_1_k_1_s_91
   + cum_prob_j_1_k_2_s_91 - 1e+07 cum_prob_j_2_k_0_s_91
   - 1.732050807568877 cum_prob_j_2_k_1_s_91
   - 1.224744871391589 cum_prob_j_2_k_2_s_91 = 0
 prob_chain_j_3_s_91: cum_prob_j_2_k_0_s_91 + cum_prob_j_2_k_1_s_91
   + cum_prob_j_2_k_2_s_91 - 1e+07 cum_prob_j_3_k_0_s_91
   - 1.732050807568877 cum_prob_j_3_k_1_s_91
   - 1.224744871391589 cum_prob_j_3_k_2_s_91 = 0
 prob_chain_j_4_s_91: cum_prob_j_3_k_0_s_91 + cum_prob_j_3_k_1_s_91
   + cum_prob_j_3_k_2_s_91 - cum_prob_j_4_k_0_s_91
   - 2.366025403784438 cum_prob_j_4_k_1_s_91
   - 5.449489742783178 cum_prob_j_4_k_2_s_91 = 0
 prob_chain_j_1_s_90: cum_prob_j_0_k_0_s_90 + cum_prob_j_0_k_1_s_90
   + cum_prob_j_0_k_2_s_90 - 1e+07 cum_prob_j_1_k_0_s_90
   - 1.732050807568877 cum_prob_j_1_k_1_s_90
   - 1.224744871391589 cum_prob_j_1_k_2_s_90 = 0
 prob_chain_j_2_s_90: cum_prob_j_1_k_0_s_90 + cum_prob_j_1_k_1_s_90
   + cum_prob_j_1_k_2_s_90 - 1e+07 cum_prob_j_2_k_0_s_90
   - 1.732050807568877 cum_prob_j_2_k_1_s_90
   - 1.224744871391589 cum_prob_j_2_k_2_s_90 = 0
 prob_chain_j_3_s_90: cum_prob_j_2_k_0_s_90 + cum_prob_j_2_k_1_s_90
   + cum_prob_j_2_k_2_s_90 - cum_prob_j_3_k_0_s_90
   - 2.366025403784438 cum_prob_j_3_k_1_s_90
   - 5.449489742783178 cum_prob_j_3_k_2_s_90 = 0
 prob_chain_j_4_s_90: cum_prob_j_3_k_0_s_90 + cum_prob_j_3_k_1_s_90
   + cum_prob_j_3_k_2_s_90 - cum_prob_j_4_k_0_s_90
   - 2.366025403784438 cum_prob_j_4_k_1_s_90
   - 5.449489742783178 cum_prob_j_4_k_2_s_90 = 0
 prob_chain_j_1_s_93: cum_prob_j_0_k_0_s_93 + cum_prob_j_0_k_1_s_93
   + cum_prob_j_0_k_2_s_93 - cum_prob_j_1_k_0_s_93
   - 2.366025403784438 cum_prob_j_1_k_1_s_93
   - 5.449489742783178 cum_prob_j_1_k_2_s_93 = 0
 prob_chain_j_2_s_93: cum_prob_j_1_k_0_s_93 + cum_prob_j_1_k_1_s_93
   + cum_prob_j_1_k_2_s_93 - cum_prob_j_2_k_0_s_93
   - 2.366025403784438 cum_prob_j_2_k_1_s_93
   - 5.449489742783178 cum_prob_j_2_k_2_s_93 = 0
 prob_chain_j_3_s_93: cum_prob_j_2_k_0_s_93 + cum_prob_j_2_k_1_s_93
   + cum_prob_j_2_k_2_s_93 - cum_prob_j_3_k_0_s_93
   - 2.366025403784438 cum_prob_j_3_k_1_s_93
   - 5.449489742783178 cum_prob_j_3_k_2_s_93 = 0
 prob_chain_j_4_s_93: cum_prob_j_3_k_0_s_93 + cum_prob_j_3_k_1_s_93
   + cum_prob_j_3_k_2_s_93 - cum_prob_j_4_k_0_s_93
   - 2.366025403784438 cum_prob_j_4_k_1_s_93
   - 5.449489742783178 cum_prob_j_4_k_2_s_93 = 0
 prob_chain_j_1_s_92: cum_prob_j_0_k_0_s_92 + cum_prob_j_0_k_1_s_92
   + cum_prob_j_0_k_2_s_92 - 1e+07 cum_prob_j_1_k_0_s_92
   - 1.732050807568877 cum_prob_j_1_k_1_s_92
   - 1.224744871391589 cum_prob_j_1_k_2_s_92 = 0
 prob_chain_j_2_s_92: cum_prob_j_1_k_0_s_92 + cum_prob_j_1_k_1_s_92
   + cum_prob_j_1_k_2_s_92 - 1e+07 cum_prob_j_2_k_0_s_92
   - 1.732050807568877 cum_prob_j_2_k_1_s_92
   - 1.224744871391589 cum_prob_j_2_k_2_s_92 = 0
 prob_chain_j_3_s_92: cum_prob_j_2_k_0_s_92 + cum_prob_j_2_k_1_s_92
   + cum_prob_j_2_k_2_s_92 - cum_prob_j_3_k_0_s_92
   - 2.366025403784438 cum_prob_j_3_k_1_s_92
   - 5.449489742783178 cum_prob_j_3_k_2_s_92 = 0
 prob_chain_j_4_s_92: cum_prob_j_3_k_0_s_92 + cum_prob_j_3_k_1_s_92
   + cum_prob_j_3_k_2_s_92 - cum_prob_j_4_k_0_s_92
   - 2.366025403784438 cum_prob_j_4_k_1_s_92
   - 5.449489742783178 cum_prob_j_4_k_2_s_92 = 0
 prob_chain_j_1_s_95: cum_prob_j_0_k_0_s_95 + cum_prob_j_0_k_1_s_95
   + cum_prob_j_0_k_2_s_95 - 1e+07 cum_prob_j_1_k_0_s_95
   - 1.732050807568877 cum_prob_j_1_k_1_s_95
   - 1.224744871391589 cum_prob_j_1_k_2_s_95 = 0
 prob_chain_j_2_s_95: cum_prob_j_1_k_0_s_95 + cum_prob_j_1_k_1_s_95
   + cum_prob_j_1_k_2_s_95 - cum_prob_j_2_k_0_s_95
   - 2.366025403784438 cum_prob_j_2_k_1_s_95
   - 5.449489742783178 cum_prob_j_2_k_2_s_95 = 0
 prob_chain_j_3_s_95: cum_prob_j_2_k_0_s_95 + cum_prob_j_2_k_1_s_95
   + cum_prob_j_2_k_2_s_95 - 1e+07 cum_prob_j_3_k_0_s_95
   - 1.732050807568877 cum_prob_j_3_k_1_s_95
   - 1.224744871391589 cum_prob_j_3_k_2_s_95 = 0
 prob_chain_j_4_s_95: cum_prob_j_3_k_0_s_95 + cum_prob_j_3_k_1_s_95
   + cum_prob_j_3_k_2_s_95 - cum_prob_j_4_k_0_s_95
   - 2.366025403784438 cum_prob_j_4_k_1_s_95
   - 5.449489742783178 cum_prob_j_4_k_2_s_95 = 0
 prob_chain_j_1_s_94: cum_prob_j_0_k_0_s_94 + cum_prob_j_0_k_1_s_94
   + cum_prob_j_0_k_2_s_94 - 1e+07 cum_prob_j_1_k_0_s_94
   - 1.732050807568877 cum_prob_j_1_k_1_s_94
   - 1.224744871391589 cum_prob_j_1_k_2_s_94 = 0
 prob_chain_j_2_s_94: cum_prob_j_1_k_0_s_94 + cum_prob_j_1_k_1_s_94
   + cum_prob_j_1_k_2_s_94 - 1e+07 cum_prob_j_2_k_0_s_94
   - 1.732050807568877 cum_prob_j_2_k_1_s_94
   - 1.224744871391589 cum_prob_j_2_k_2_s_94 = 0
 prob_chain_j_3_s_94: cum_prob_j_2_k_0_s_94 + cum_prob_j_2_k_1_s_94
   + cum_prob_j_2_k_2_s_94 - cum_prob_j_3_k_0_s_94
   - 2.366025403784438 cum_prob_j_3_k_1_s_94
   - 5.449489742783178 cum_prob_j_3_k_2_s_94 = 0
 prob_chain_j_4_s_94: cum_prob_j_3_k_0_s_94 + cum_prob_j_3_k_1_s_94
   + cum_prob_j_3_k_2_s_94 - 1e+07 cum_prob_j_4_k_0_s_94
   - 1.732050807568877 cum_prob_j_4_k_1_s_94
   - 1.224744871391589 cum_prob_j_4_k_2_s_94 = 0
 prob_chain_j_1_s_97: cum_prob_j_0_k_0_s_97 + cum_prob_j_0_k_1_s_97
   + cum_prob_j_0_k_2_s_97 - cum_prob_j_1_k_0_s_97
   - 2.366025403784438 cum_prob_j_1_k_1_s_97
   - 5.449489742783178 cum_prob_j_1_k_2_s_97 = 0
 prob_chain_j_2_s_97: cum_prob_j_1_k_0_s_97 + cum_prob_j_1_k_1_s_97
   + cum_prob_j_1_k_2_s_97 - cum_prob_j_2_k_0_s_97
   - 2.366025403784438 cum_prob_j_2_k_1_s_97
   - 5.449489742783178 cum_prob_j_2_k_2_s_97 = 0
 prob_chain_j_3_s_97: cum_prob_j_2_k_0_s_97 + cum_prob_j_2_k_1_s_97
   + cum_prob_j_2_k_2_s_97 - 1e+07 cum_prob_j_3_k_0_s_97
   - 1.732050807568877 cum_prob_j_3_k_1_s_97
   - 1.224744871391589 cum_prob_j_3_k_2_s_97 = 0
 prob_chain_j_4_s_97: cum_prob_j_3_k_0_s_97 + cum_prob_j_3_k_1_s_97
   + cum_prob_j_3_k_2_s_97 - 1e+07 cum_prob_j_4_k_0_s_97
   - 1.732050807568877 cum_prob_j_4_k_1_s_97
   - 1.224744871391589 cum_prob_j_4_k_2_s_97 = 0
 prob_chain_j_1_s_96: cum_prob_j_0_k_0_s_96 + cum_prob_j_0_k_1_s_96
   + cum_prob_j_0_k_2_s_96 - cum_prob_j_1_k_0_s_96
   - 2.366025403784438 cum_prob_j_1_k_1_s_96
   - 5.449489742783178 cum_prob_j_1_k_2_s_96 = 0
 prob_chain_j_2_s_96: cum_prob_j_1_k_0_s_96 + cum_prob_j_1_k_1_s_96
   + cum_prob_j_1_k_2_s_96 - cum_prob_j_2_k_0_s_96
   - 2.366025403784438 cum_prob_j_2_k_1_s_96
   - 5.449489742783178 cum_prob_j_2_k_2_s_96 = 0
 prob_chain_j_3_s_96: cum_prob_j_2_k_0_s_96 + cum_prob_j_2_k_1_s_96
   + cum_prob_j_2_k_2_s_96 - cum_prob_j_3_k_0_s_96
   - 2.366025403784438 cum_prob_j_3_k_1_s_96
   - 5.449489742783178 cum_prob_j_3_k_2_s_96 = 0
 prob_chain_j_4_s_96: cum_prob_j_3_k_0_s_96 + cum_prob_j_3_k_1_s_96
   + cum_prob_j_3_k_2_s_96 - 1e+07 cum_prob_j_4_k_0_s_96
   - 1.732050807568877 cum_prob_j_4_k_1_s_96
   - 1.224744871391589 cum_prob_j_4_k_2_s_96 = 0
 VUB_j_0_k_0_s_99: - 1547.428995223687 allocVar_j_0_k_0
   + cum_prob_j_0_k_0_s_99 <= 0
 VUB_j_0_k_1_s_99: - 1547.428995223687 allocVar_j_0_k_1
   + cum_prob_j_0_k_1_s_99 <= 0
 VUB_j_0_k_2_s_99: - 1547.428995223687 allocVar_j_0_k_2
   + cum_prob_j_0_k_2_s_99 <= 0
 VUB_j_1_k_0_s_99: - 1547.428995223687 allocVar_j_1_k_0
   + cum_prob_j_1_k_0_s_99 <= 0
 VUB_j_1_k_1_s_99: - 1547.428995223687 allocVar_j_1_k_1
   + cum_prob_j_1_k_1_s_99 <= 0
 VUB_j_1_k_2_s_99: - 1547.428995223687 allocVar_j_1_k_2
   + cum_prob_j_1_k_2_s_99 <= 0
 VUB_j_2_k_0_s_99: - 1547.428995223687 allocVar_j_2_k_0
   + cum_prob_j_2_k_0_s_99 <= 0
 VUB_j_2_k_1_s_99: - 1547.428995223687 allocVar_j_2_k_1
   + cum_prob_j_2_k_1_s_99 <= 0
 VUB_j_2_k_2_s_99: - 1547.428995223687 allocVar_j_2_k_2
   + cum_prob_j_2_k_2_s_99 <= 0
 VUB_j_3_k_0_s_99: - 1547.428995223687 allocVar_j_3_k_0
   + cum_prob_j_3_k_0_s_99 <= 0
 VUB_j_3_k_1_s_99: - 1547.428995223687 allocVar_j_3_k_1
   + cum_prob_j_3_k_1_s_99 <= 0
 VUB_j_3_k_2_s_99: - 1547.428995223687 allocVar_j_3_k_2
   + cum_prob_j_3_k_2_s_99 <= 0
 VUB_j_4_k_0_s_99: - 1547.428995223687 allocVar_j_4_k_0
   + cum_prob_j_4_k_0_s_99 <= 0
 VUB_j_4_k_1_s_99: - 1547.428995223687 allocVar_j_4_k_1
   + cum_prob_j_4_k_1_s_99 <= 0
 VUB_j_4_k_2_s_99: - 1547.428995223687 allocVar_j_4_k_2
   + cum_prob_j_4_k_2_s_99 <= 0
 VUB_j_0_k_0_s_98: - 4825.541295247814 allocVar_j_0_k_0
   + cum_prob_j_0_k_0_s_98 <= 0
 VUB_j_0_k_1_s_98: - 4825.541295247814 allocVar_j_0_k_1
   + cum_prob_j_0_k_1_s_98 <= 0
 VUB_j_0_k_2_s_98: - 4825.541295247814 allocVar_j_0_k_2
   + cum_prob_j_0_k_2_s_98 <= 0
 VUB_j_1_k_0_s_98: - 4825.541295247814 allocVar_j_1_k_0
   + cum_prob_j_1_k_0_s_98 <= 0
 VUB_j_1_k_1_s_98: - 4825.541295247814 allocVar_j_1_k_1
   + cum_prob_j_1_k_1_s_98 <= 0
 VUB_j_1_k_2_s_98: - 4825.541295247814 allocVar_j_1_k_2
   + cum_prob_j_1_k_2_s_98 <= 0
 VUB_j_2_k_0_s_98: - 4825.541295247814 allocVar_j_2_k_0
   + cum_prob_j_2_k_0_s_98 <= 0
 VUB_j_2_k_1_s_98: - 4825.541295247814 allocVar_j_2_k_1
   + cum_prob_j_2_k_1_s_98 <= 0
 VUB_j_2_k_2_s_98: - 4825.541295247814 allocVar_j_2_k_2
   + cum_prob_j_2_k_2_s_98 <= 0
 VUB_j_3_k_0_s_98: - 4825.541295247814 allocVar_j_3_k_0
   + cum_prob_j_3_k_0_s_98 <= 0
 VUB_j_3_k_1_s_98: - 4825.541295247814 allocVar_j_3_k_1
   + cum_prob_j_3_k_1_s_98 <= 0
 VUB_j_3_k_2_s_98: - 4825.541295247814 allocVar_j_3_k_2
   + cum_prob_j_3_k_2_s_98 <= 0
 VUB_j_4_k_0_s_98: - 4825.541295247814 allocVar_j_4_k_0
   + cum_prob_j_4_k_0_s_98 <= 0
 VUB_j_4_k_1_s_98: - 4825.541295247814 allocVar_j_4_k_1
   + cum_prob_j_4_k_1_s_98 <= 0
 VUB_j_4_k_2_s_98: - 4825.541295247814 allocVar_j_4_k_2
   + cum_prob_j_4_k_2_s_98 <= 0
 VUB_j_0_k_0_s_91: - 2695.194616059194 allocVar_j_0_k_0
   + cum_prob_j_0_k_0_s_91 <= 0
 VUB_j_0_k_1_s_91: - 2695.194616059194 allocVar_j_0_k_1
   + cum_prob_j_0_k_1_s_91 <= 0
 VUB_j_0_k_2_s_91: - 2695.194616059194 allocVar_j_0_k_2
   + cum_prob_j_0_k_2_s_91 <= 0
 VUB_j_1_k_0_s_91: - 2695.194616059194 allocVar_j_1_k_0
   + cum_prob_j_1_k_0_s_91 <= 0
 VUB_j_1_k_1_s_91: - 2695.194616059194 allocVar_j_1_k_1
   + cum_prob_j_1_k_1_s_91 <= 0
 VUB_j_1_k_2_s_91: - 2695.194616059194 allocVar_j_1_k_2
   + cum_prob_j_1_k_2_s_91 <= 0
 VUB_j_2_k_0_s_91: - 2695.194616059194 allocVar_j_2_k_0
   + cum_prob_j_2_k_0_s_91 <= 0
 VUB_j_2_k_1_s_91: - 2695.194616059194 allocVar_j_2_k_1
   + cum_prob_j_2_k_1_s_91 <= 0
 VUB_j_2_k_2_s_91: - 2695.194616059194 allocVar_j_2_k_2
   + cum_prob_j_2_k_2_s_91 <= 0
 VUB_j_3_k_0_s_91: - 2695.194616059194 allocVar_j_3_k_0
   + cum_prob_j_3_k_0_s_91 <= 0
 VUB_j_3_k_1_s_91: - 2695.194616059194 allocVar_j_3_k_1
   + cum_prob_j_3_k_1_s_91 <= 0
 VUB_j_3_k_2_s_91: - 2695.194616059194 allocVar_j_3_k_2
   + cum_prob_j_3_k_2_s_91 <= 0
 VUB_j_4_k_0_s_91: - 2695.194616059194 allocVar_j_4_k_0
   + cum_prob_j_4_k_0_s_91 <= 0
 VUB_j_4_k_1_s_91: - 2695.194616059194 allocVar_j_4_k_1
   + cum_prob_j_4_k_1_s_91 <= 0
 VUB_j_4_k_2_s_91: - 2695.194616059194 allocVar_j_4_k_2
   + cum_prob_j_4_k_2_s_91 <= 0
 VUB_j_0_k_0_s_90: - 3956.968887059571 allocVar_j_0_k_0
   + cum_prob_j_0_k_0_s_90 <= 0
 VUB_j_0_k_1_s_90: - 3956.968887059571 allocVar_j_0_k_1
   + cum_prob_j_0_k_1_s_90 <= 0
 VUB_j_0_k_2_s_90: - 3956.968887059571 allocVar_j_0_k_2
   + cum_prob_j_0_k_2_s_90 <= 0
 VUB_j_1_k_0_s_90: - 3956.968887059571 allocVar_j_1_k_0
   + cum_prob_j_1_k_0_s_90 <= 0
 VUB_j_1_k_1_s_90: - 3956.968887059571 allocVar_j_1_k_1
   + cum_prob_j_1_k_1_s_90 <= 0
 VUB_j_1_k_2_s_90: - 3956.968887059571 allocVar_j_1_k_2
   + cum_prob_j_1_k_2_s_90 <= 0
 VUB_j_2_k_0_s_90: - 3956.968887059571 allocVar_j_2_k_0
   + cum_prob_j_2_k_0_s_90 <= 0
 VUB_j_2_k_1_s_90: - 3956.968887059571 allocVar_j_2_k_1
   + cum_prob_j_2_k_1_s_90 <= 0
 VUB_j_2_k_2_s_90: - 3956.968887059571 allocVar_j_2_k_2
   + cum_prob_j_2_k_2_s_90 <= 0
 VUB_j_3_k_0_s_90: - 3956.968887059571 allocVar_j_3_k_0
   + cum_prob_j_3_k_0_s_90 <= 0
 VUB_j_3_k_1_s_90: - 3956.968887059571 allocVar_j_3_k_1
   + cum_prob_j_3_k_1_s_90 <= 0
 VUB_j_3_k_2_s_90: - 3956.968887059571 allocVar_j_3_k_2
   + cum_prob_j_3_k_2_s_90 <= 0
 VUB_j_4_k_0_s_90: - 3956.968887059571 allocVar_j_4_k_0
   + cum_prob_j_4_k_0_s_90 <= 0
 VUB_j_4_k_1_s_90: - 3956.968887059571 allocVar_j_4_k_1
   + cum_prob_j_4_k_1_s_90 <= 0
 VUB_j_4_k_2_s_90: - 3956.968887059571 allocVar_j_4_k_2
   + cum_prob_j_4_k_2_s_90 <= 0
 VUB_j_0_k_0_s_93: - 368.9995457101158 allocVar_j_0_k_0
   + cum_prob_j_0_k_0_s_93 <= 0
 VUB_j_0_k_1_s_93: - 368.9995457101158 allocVar_j_0_k_1
   + cum_prob_j_0_k_1_s_93 <= 0
 VUB_j_0_k_2_s_93: - 368.9995457101158 allocVar_j_0_k_2
   + cum_prob_j_0_k_2_s_93 <= 0
 VUB_j_1_k_0_s_93: - 368.9995457101158 allocVar_j_1_k_0
   + cum_prob_j_1_k_0_s_93 <= 0
 VUB_j_1_k_1_s_93: - 368.9995457101158 allocVar_j_1_k_1
   + cum_prob_j_1_k_1_s_93 <= 0
 VUB_j_1_k_2_s_93: - 368.9995457101158 allocVar_j_1_k_2
   + cum_prob_j_1_k_2_s_93 <= 0
 VUB_j_2_k_0_s_93: - 368.9995457101158 allocVar_j_2_k_0
   + cum_prob_j_2_k_0_s_93 <= 0
 VUB_j_2_k_1_s_93: - 368.9995457101158 allocVar_j_2_k_1
   + cum_prob_j_2_k_1_s_93 <= 0
 VUB_j_2_k_2_s_93: - 368.9995457101158 allocVar_j_2_k_2
   + cum_prob_j_2_k_2_s_93 <= 0
 VUB_j_3_k_0_s_93: - 368.9995457101158 allocVar_j_3_k_0
   + cum_prob_j_3_k_0_s_93 <= 0
 VUB_j_3_k_1_s_93: - 368.9995457101158 allocVar_j_3_k_1
   + cum_prob_j_3_k_1_s_93 <= 0
 VUB_j_3_k_2_s_93: - 368.9995457101158 allocVar_j_3_k_2
   + cum_prob_j_3_k_2_s_93 <= 0
 VUB_j_4_k_0_s_93: - 368.9995457101158 allocVar_j_4_k_0
   + cum_prob_j_4_k_0_s_93 <= 0
 VUB_j_4_k_1_s_93: - 368.9995457101158 allocVar_j_4_k_1
   + cum_prob_j_4_k_1_s_93 <= 0
 VUB_j_4_k_2_s_93: - 368.9995457101158 allocVar_j_4_k_2
   + cum_prob_j_4_k_2_s_93 <= 0
 VUB_j_0_k_0_s_92: - 2642.413694609786 allocVar_j_0_k_0
   + cum_prob_j_0_k_0_s_92 <= 0
 VUB_j_0_k_1_s_92: - 2642.413694609786 allocVar_j_0_k_1
   + cum_prob_j_0_k_1_s_92 <= 0
 VUB_j_0_k_2_s_92: - 2642.413694609786 allocVar_j_0_k_2
   + cum_prob_j_0_k_2_s_92 <= 0
 VUB_j_1_k_0_s_92: - 2642.413694609786 allocVar_j_1_k_0
   + cum_prob_j_1_k_0_s_92 <= 0
 VUB_j_1_k_1_s_92: - 2642.413694609786 allocVar_j_1_k_1
   + cum_prob_j_1_k_1_s_92 <= 0
 VUB_j_1_k_2_s_92: - 2642.413694609786 allocVar_j_1_k_2
   + cum_prob_j_1_k_2_s_92 <= 0
 VUB_j_2_k_0_s_92: - 2642.413694609786 allocVar_j_2_k_0
   + cum_prob_j_2_k_0_s_92 <= 0
 VUB_j_2_k_1_s_92: - 2642.413694609786 allocVar_j_2_k_1
   + cum_prob_j_2_k_1_s_92 <= 0
 VUB_j_2_k_2_s_92: - 2642.413694609786 allocVar_j_2_k_2
   + cum_prob_j_2_k_2_s_92 <= 0
 VUB_j_3_k_0_s_92: - 2642.413694609786 allocVar_j_3_k_0
   + cum_prob_j_3_k_0_s_92 <= 0
 VUB_j_3_k_1_s_92: - 2642.413694609786 allocVar_j_3_k_1
   + cum_prob_j_3_k_1_s_92 <= 0
 VUB_j_3_k_2_s_92: - 2642.413694609786 allocVar_j_3_k_2
   + cum_prob_j_3_k_2_s_92 <= 0
 VUB_j_4_k_0_s_92: - 2642.413694609786 allocVar_j_4_k_0
   + cum_prob_j_4_k_0_s_92 <= 0
 VUB_j_4_k_1_s_92: - 2642.413694609786 allocVar_j_4_k_1
   + cum_prob_j_4_k_1_s_92 <= 0
 VUB_j_4_k_2_s_92: - 2642.413694609786 allocVar_j_4_k_2
   + cum_prob_j_4_k_2_s_92 <= 0
 VUB_j_0_k_0_s_95: - 2747.358641277757 allocVar_j_0_k_0
   + cum_prob_j_0_k_0_s_95 <= 0
 VUB_j_0_k_1_s_95: - 2747.358641277757 allocVar_j_0_k_1
   + cum_prob_j_0_k_1_s_95 <= 0
 VUB_j_0_k_2_s_95: - 2747.358641277757 allocVar_j_0_k_2
   + cum_prob_j_0_k_2_s_95 <= 0
 VUB_j_1_k_0_s_95: - 2747.358641277757 allocVar_j_1_k_0
   + cum_prob_j_1_k_0_s_95 <= 0
 VUB_j_1_k_1_s_95: - 2747.358641277757 allocVar_j_1_k_1
   + cum_prob_j_1_k_1_s_95 <= 0
 VUB_j_1_k_2_s_95: - 2747.358641277757 allocVar_j_1_k_2
   + cum_prob_j_1_k_2_s_95 <= 0
 VUB_j_2_k_0_s_95: - 2747.358641277757 allocVar_j_2_k_0
   + cum_prob_j_2_k_0_s_95 <= 0
 VUB_j_2_k_1_s_95: - 2747.358641277757 allocVar_j_2_k_1
   + cum_prob_j_2_k_1_s_95 <= 0
 VUB_j_2_k_2_s_95: - 2747.358641277757 allocVar_j_2_k_2
   + cum_prob_j_2_k_2_s_95 <= 0
 VUB_j_3_k_0_s_95: - 2747.358641277757 allocVar_j_3_k_0
   + cum_prob_j_3_k_0_s_95 <= 0
 VUB_j_3_k_1_s_95: - 2747.358641277757 allocVar_j_3_k_1
   + cum_prob_j_3_k_1_s_95 <= 0
 VUB_j_3_k_2_s_95: - 2747.358641277757 allocVar_j_3_k_2
   + cum_prob_j_3_k_2_s_95 <= 0
 VUB_j_4_k_0_s_95: - 2747.358641277757 allocVar_j_4_k_0
   + cum_prob_j_4_k_0_s_95 <= 0
 VUB_j_4_k_1_s_95: - 2747.358641277757 allocVar_j_4_k_1
   + cum_prob_j_4_k_1_s_95 <= 0
 VUB_j_4_k_2_s_95: - 2747.358641277757 allocVar_j_4_k_2
   + cum_prob_j_4_k_2_s_95 <= 0
 VUB_j_0_k_0_s_94: - 3593.220642810776 allocVar_j_0_k_0
   + cum_prob_j_0_k_0_s_94 <= 0
 VUB_j_0_k_1_s_94: - 3593.220642810776 allocVar_j_0_k_1
   + cum_prob_j_0_k_1_s_94 <= 0
 VUB_j_0_k_2_s_94: - 3593.220642810776 allocVar_j_0_k_2
   + cum_prob_j_0_k_2_s_94 <= 0
 VUB_j_1_k_0_s_94: - 3593.220642810776 allocVar_j_1_k_0
   + cum_prob_j_1_k_0_s_94 <= 0
 VUB_j_1_k_1_s_94: - 3593.220642810776 allocVar_j_1_k_1
   + cum_prob_j_1_k_1_s_94 <= 0
 VUB_j_1_k_2_s_94: - 3593.220642810776 allocVar_j_1_k_2
   + cum_prob_j_1_k_2_s_94 <= 0
 VUB_j_2_k_0_s_94: - 3593.220642810776 allocVar_j_2_k_0
   + cum_prob_j_2_k_0_s_94 <= 0
 VUB_j_2_k_1_s_94: - 3593.220642810776 allocVar_j_2_k_1
   + cum_prob_j_2_k_1_s_94 <= 0
 VUB_j_2_k_2_s_94: - 3593.220642810776 allocVar_j_2_k_2
   + cum_prob_j_2_k_2_s_94 <= 0
 VUB_j_3_k_0_s_94: - 3593.220642810776 allocVar_j_3_k_0
   + cum_prob_j_3_k_0_s_94 <= 0
 VUB_j_3_k_1_s_94: - 3593.220642810776 allocVar_j_3_k_1
   + cum_prob_j_3_k_1_s_94 <= 0
 VUB_j_3_k_2_s_94: - 3593.220642810776 allocVar_j_3_k_2
   + cum_prob_j_3_k_2_s_94 <= 0
 VUB_j_4_k_0_s_94: - 3593.220642810776 allocVar_j_4_k_0
   + cum_prob_j_4_k_0_s_94 <= 0
 VUB_j_4_k_1_s_94: - 3593.220642810776 allocVar_j_4_k_1
   + cum_prob_j_4_k_1_s_94 <= 0
 VUB_j_4_k_2_s_94: - 3593.220642810776 allocVar_j_4_k_2
   + cum_prob_j_4_k_2_s_94 <= 0
 VUB_j_0_k_0_s_97: - 2747.563536805828 allocVar_j_0_k_0
   + cum_prob_j_0_k_0_s_97 <= 0
 VUB_j_0_k_1_s_97: - 2747.563536805828 allocVar_j_0_k_1
   + cum_prob_j_0_k_1_s_97 <= 0
 VUB_j_0_k_2_s_97: - 2747.563536805828 allocVar_j_0_k_2
   + cum_prob_j_0_k_2_s_97 <= 0
 VUB_j_1_k_0_s_97: - 2747.563536805828 allocVar_j_1_k_0
   + cum_prob_j_1_k_0_s_97 <= 0
 VUB_j_1_k_1_s_97: - 2747.563536805828 allocVar_j_1_k_1
   + cum_prob_j_1_k_1_s_97 <= 0
 VUB_j_1_k_2_s_97: - 2747.563536805828 allocVar_j_1_k_2
   + cum_prob_j_1_k_2_s_97 <= 0
 VUB_j_2_k_0_s_97: - 2747.563536805828 allocVar_j_2_k_0
   + cum_prob_j_2_k_0_s_97 <= 0
 VUB_j_2_k_1_s_97: - 2747.563536805828 allocVar_j_2_k_1
   + cum_prob_j_2_k_1_s_97 <= 0
 VUB_j_2_k_2_s_97: - 2747.563536805828 allocVar_j_2_k_2
   + cum_prob_j_2_k_2_s_97 <= 0
 VUB_j_3_k_0_s_97: - 2747.563536805828 allocVar_j_3_k_0
   + cum_prob_j_3_k_0_s_97 <= 0
 VUB_j_3_k_1_s_97: - 2747.563536805828 allocVar_j_3_k_1
   + cum_prob_j_3_k_1_s_97 <= 0
 VUB_j_3_k_2_s_97: - 2747.563536805828 allocVar_j_3_k_2
   + cum_prob_j_3_k_2_s_97 <= 0
 VUB_j_4_k_0_s_97: - 2747.563536805828 allocVar_j_4_k_0
   + cum_prob_j_4_k_0_s_97 <= 0
 VUB_j_4_k_1_s_97: - 2747.563536805828 allocVar_j_4_k_1
   + cum_prob_j_4_k_1_s_97 <= 0
 VUB_j_4_k_2_s_97: - 2747.563536805828 allocVar_j_4_k_2
   + cum_prob_j_4_k_2_s_97 <= 0
 VUB_j_0_k_0_s_96: - 2934.219865624129 allocVar_j_0_k_0
   + cum_prob_j_0_k_0_s_96 <= 0
 VUB_j_0_k_1_s_96: - 2934.219865624129 allocVar_j_0_k_1
   + cum_prob_j_0_k_1_s_96 <= 0
 VUB_j_0_k_2_s_96: - 2934.219865624129 allocVar_j_0_k_2
   + cum_prob_j_0_k_2_s_96 <= 0
 VUB_j_1_k_0_s_96: - 2934.219865624129 allocVar_j_1_k_0
   + cum_prob_j_1_k_0_s_96 <= 0
 VUB_j_1_k_1_s_96: - 2934.219865624129 allocVar_j_1_k_1
   + cum_prob_j_1_k_1_s_96 <= 0
 VUB_j_1_k_2_s_96: - 2934.219865624129 allocVar_j_1_k_2
   + cum_prob_j_1_k_2_s_96 <= 0
 VUB_j_2_k_0_s_96: - 2934.219865624129 allocVar_j_2_k_0
   + cum_prob_j_2_k_0_s_96 <= 0
 VUB_j_2_k_1_s_96: - 2934.219865624129 allocVar_j_2_k_1
   + cum_prob_j_2_k_1_s_96 <= 0
 VUB_j_2_k_2_s_96: - 2934.219865624129 allocVar_j_2_k_2
   + cum_prob_j_2_k_2_s_96 <= 0
 VUB_j_3_k_0_s_96: - 2934.219865624129 allocVar_j_3_k_0
   + cum_prob_j_3_k_0_s_96 <= 0
 VUB_j_3_k_1_s_96: - 2934.219865624129 allocVar_j_3_k_1
   + cum_prob_j_3_k_1_s_96 <= 0
 VUB_j_3_k_2_s_96: - 2934.219865624129 allocVar_j_3_k_2
   + cum_prob_j_3_k_2_s_96 <= 0
 VUB_j_4_k_0_s_96: - 2934.219865624129 allocVar_j_4_k_0
   + cum_prob_j_4_k_0_s_96 <= 0
 VUB_j_4_k_1_s_96: - 2934.219865624129 allocVar_j_4_k_1
   + cum_prob_j_4_k_1_s_96 <= 0
 VUB_j_4_k_2_s_96: - 2934.219865624129 allocVar_j_4_k_2
   + cum_prob_j_4_k_2_s_96 <= 0
 multiple_choic_j_0: allocVar_j_0_k_0 + allocVar_j_0_k_1 + allocVar_j_0_k_2
   = 1
 multiple_choic_j_1: allocVar_j_1_k_0 + allocVar_j_1_k_1 + allocVar_j_1_k_2
   = 1
 multiple_choic_j_2: allocVar_j_2_k_0 + allocVar_j_2_k_1 + allocVar_j_2_k_2
   = 1
 multiple_choic_j_3: allocVar_j_3_k_0 + allocVar_j_3_k_1 + allocVar_j_3_k_2
   = 1
 multiple_choic_j_4: allocVar_j_4_k_0 + allocVar_j_4_k_1 + allocVar_j_4_k_2
   = 1
 budget: allocVar_j_0_k_1 + 2 allocVar_j_0_k_2 + allocVar_j_1_k_1
   + 2 allocVar_j_1_k_2 + allocVar_j_2_k_1 + 2 allocVar_j_2_k_2
   + allocVar_j_3_k_1 + 2 allocVar_j_3_k_2 + allocVar_j_4_k_1
   + 2 allocVar_j_4_k_2 <= 3
Bounds
Binaries
 allocVar_j_0_k_0 allocVar_j_0_k_1 allocVar_j_0_k_2 allocVar_j_1_k_0
 allocVar_j_1_k_1 allocVar_j_1_k_2 allocVar_j_2_k_0 allocVar_j_2_k_1
 allocVar_j_2_k_2 allocVar_j_3_k_0 allocVar_j_3_k_1 allocVar_j_3_k_2
 allocVar_j_4_k_0 allocVar_j_4_k_1 allocVar_j_4_k_2
End
